(set-logic QF_LRA)
(declare-fun fluent_started_i0_t0@0 () Bool)
(declare-fun fluent_started_i1_t0@0 () Bool)
(declare-fun fluent_started_i0_t1@0 () Bool)
(declare-fun fluent_started_i1_t1@0 () Bool)
(declare-fun fluent_started_i0_t2@0 () Bool)
(declare-fun fluent_started_i1_t2@0 () Bool)
(declare-fun fluent_started_i0_t3@0 () Bool)
(declare-fun fluent_started_i1_t3@0 () Bool)
(declare-fun fluent_started_i0_t4@0 () Bool)
(declare-fun fluent_started_i1_t4@0 () Bool)
(declare-fun fluent_started_i0_t5@0 () Bool)
(declare-fun fluent_ready_i0_t0@0 () Bool)
(declare-fun fluent_ready_i1_t0@0 () Bool)
(declare-fun fluent_ready_i0_t1@0 () Bool)
(declare-fun fluent_ready_i1_t1@0 () Bool)
(declare-fun fluent_ready_i0_t2@0 () Bool)
(declare-fun fluent_ready_i1_t2@0 () Bool)
(declare-fun fluent_ready_i0_t3@0 () Bool)
(declare-fun fluent_ready_i1_t3@0 () Bool)
(declare-fun fluent_ready_i0_t4@0 () Bool)
(declare-fun fluent_ready_i1_t4@0 () Bool)
(declare-fun fluent_ready_i0_t5@0 () Bool)
(declare-fun fluent_ready_i1_t5@0 () Bool)
(declare-fun fluent_started_i1_t5@0 () Bool)
(declare-fun fluent_busy_@0 () Bool)
(declare-fun fluent_counter_t0@1 () Real)
(declare-fun fluent_treated_i0_t0@0 () Bool)
(declare-fun fluent_treated_i1_t0@0 () Bool)
(declare-fun fluent_treated_i0_t1@0 () Bool)
(declare-fun fluent_treated_i1_t1@0 () Bool)
(declare-fun fluent_treated_i0_t2@0 () Bool)
(declare-fun fluent_treated_i1_t2@0 () Bool)
(declare-fun fluent_treated_i0_t3@0 () Bool)
(declare-fun fluent_treated_i1_t3@0 () Bool)
(declare-fun fluent_treated_i0_t4@0 () Bool)
(declare-fun fluent_treated_i1_t4@0 () Bool)
(declare-fun fluent_treated_i0_t5@0 () Bool)
(declare-fun fluent_treated_i1_t5@0 () Bool)
(declare-fun fluent_counter_t2@1 () Real)
(declare-fun fluent_counter_t3@1 () Real)
(declare-fun fluent_counter_t4@1 () Real)
(declare-fun fluent_counter_t5@1 () Real)
(declare-fun fluent_busy_@1 () Bool)
(declare-fun fluent_started_i0_t0@1 () Bool)
(declare-fun fluent_started_i1_t0@1 () Bool)
(declare-fun fluent_started_i0_t1@1 () Bool)
(declare-fun fluent_started_i1_t1@1 () Bool)
(declare-fun fluent_started_i0_t2@1 () Bool)
(declare-fun fluent_started_i1_t2@1 () Bool)
(declare-fun fluent_started_i0_t3@1 () Bool)
(declare-fun fluent_started_i1_t3@1 () Bool)
(declare-fun fluent_started_i0_t4@1 () Bool)
(declare-fun fluent_counter_t0@0 () Real)
(declare-fun fluent_started_i1_t4@1 () Bool)
(declare-fun fluent_started_i0_t5@1 () Bool)
(declare-fun fluent_counter_t1@0 () Real)
(declare-fun fluent_started_i1_t5@1 () Bool)
(declare-fun fluent_counter_t2@0 () Real)
(declare-fun fluent_counter_t3@0 () Real)
(declare-fun fluent_treated_i0_t0@1 () Bool)
(declare-fun fluent_treated_i1_t0@1 () Bool)
(declare-fun fluent_counter_t4@0 () Real)
(declare-fun fluent_treated_i0_t1@1 () Bool)
(declare-fun fluent_counter_t5@0 () Real)
(declare-fun fluent_treated_i1_t1@1 () Bool)
(declare-fun fluent_treated_i0_t2@1 () Bool)
(declare-fun fluent_treated_i1_t2@1 () Bool)
(declare-fun fluent_treated_i0_t3@1 () Bool)
(declare-fun fluent_treated_i1_t3@1 () Bool)
(declare-fun dur_make_treatment@1 () Real)
(declare-fun fluent_treated_i0_t4@1 () Bool)
(declare-fun fluent_treated_i1_t4@1 () Bool)
(declare-fun fluent_treated_i0_t5@1 () Bool)
(declare-fun t@1 () Real)
(declare-fun fluent_treated_i1_t5@1 () Bool)
(declare-fun parameter_make_treatment_t@1 () Real)
(declare-fun fluent_ready_i0_t0@1 () Bool)
(declare-fun fluent_ready_i1_t0@1 () Bool)
(declare-fun fluent_ready_i0_t1@1 () Bool)
(declare-fun parameter_make_treatment_i@1 () Real)
(declare-fun fluent_ready_i1_t1@1 () Bool)
(declare-fun fluent_ready_i0_t2@1 () Bool)
(declare-fun fluent_ready_i1_t2@1 () Bool)
(declare-fun fluent_ready_i0_t3@1 () Bool)
(declare-fun fluent_ready_i1_t3@1 () Bool)
(declare-fun fluent_ready_i0_t4@1 () Bool)
(declare-fun fluent_ready_i1_t4@1 () Bool)
(declare-fun fluent_ready_i0_t5@1 () Bool)
(declare-fun fluent_ready_i1_t5@1 () Bool)
(declare-fun act_make_treatment@1 () Bool)
(declare-fun parameter_make_treatment_next@1 () Real)
(declare-fun fluent_counter_t1@1 () Real)
(assert (let ((.def_0 (<= 0.0 fluent_counter_t5@1))) (let ((.def_1 (<= fluent_counter_t4@1 31.0))) (let ((.def_2 (<= 0.0 fluent_counter_t4@1))) (let ((.def_3 (<= fluent_counter_t3@1 31.0))) (let ((.def_4 (<= 0.0 fluent_counter_t3@1))) (let ((.def_5 (<= fluent_counter_t2@1 31.0))) (let ((.def_6 (<= 0.0 fluent_counter_t2@1))) (let ((.def_7 (<= fluent_counter_t1@1 31.0))) (let ((.def_8 (<= 0.0 fluent_counter_t1@1))) (let ((.def_9 (<= fluent_counter_t0@1 31.0))) (let ((.def_10 (<= 0.0 fluent_counter_t0@1))) (let ((.def_11 (= parameter_make_treatment_i@1 1.0))) (let ((.def_12 (= parameter_make_treatment_i@1 0.0))) (let ((.def_13 (or .def_12 .def_11))) (let ((.def_14 (= parameter_make_treatment_t@1 7.0))) (let ((.def_15 (= parameter_make_treatment_t@1 6.0))) (let ((.def_16 (= parameter_make_treatment_t@1 5.0))) (let ((.def_17 (= parameter_make_treatment_t@1 4.0))) (let ((.def_18 (= parameter_make_treatment_t@1 3.0))) (let ((.def_19 (= parameter_make_treatment_t@1 2.0))) (let ((.def_20 (or .def_19 .def_18 .def_17 .def_16 .def_15 .def_14))) (let ((.def_21 (= parameter_make_treatment_next@1 7.0))) (let ((.def_22 (= parameter_make_treatment_next@1 6.0))) (let ((.def_23 (= parameter_make_treatment_next@1 5.0))) (let ((.def_24 (= parameter_make_treatment_next@1 4.0))) (let ((.def_25 (= parameter_make_treatment_next@1 3.0))) (let ((.def_26 (= parameter_make_treatment_next@1 2.0))) (let ((.def_27 (or .def_26 .def_25 .def_24 .def_23 .def_22 .def_21))) (let ((.def_28 (<= fluent_counter_t5@1 31.0))) (let ((.def_29 (and act_make_treatment@1 true .def_14))) (let ((.def_30 (= fluent_counter_t5@0 fluent_counter_t5@1))) (let ((.def_31 (not .def_30))) (let ((.def_32 (=> .def_31 .def_29))) (let ((.def_33 (and act_make_treatment@1 true .def_15))) (let ((.def_34 (= fluent_counter_t4@0 fluent_counter_t4@1))) (let ((.def_35 (not .def_34))) (let ((.def_36 (=> .def_35 .def_33))) (let ((.def_37 (and act_make_treatment@1 true .def_16))) (let ((.def_38 (= fluent_counter_t3@0 fluent_counter_t3@1))) (let ((.def_39 (not .def_38))) (let ((.def_40 (=> .def_39 .def_37))) (let ((.def_41 (and act_make_treatment@1 true .def_17))) (let ((.def_42 (= fluent_counter_t2@0 fluent_counter_t2@1))) (let ((.def_43 (not .def_42))) (let ((.def_44 (=> .def_43 .def_41))) (let ((.def_45 (and act_make_treatment@1 true .def_18))) (let ((.def_46 (= fluent_counter_t1@0 fluent_counter_t1@1))) (let ((.def_47 (not .def_46))) (let ((.def_48 (=> .def_47 .def_45))) (let ((.def_49 (and act_make_treatment@1 true .def_19))) (let ((.def_50 (= fluent_counter_t0@0 fluent_counter_t0@1))) (let ((.def_51 (not .def_50))) (let ((.def_52 (=> .def_51 .def_49))) (let ((.def_53 (+ t@1 10.0))) (let ((.def_54 (= t@1 .def_53))) (let ((.def_55 (and act_make_treatment@1 true .def_54 .def_11 .def_21))) (let ((.def_56 (= fluent_ready_i1_t5@0 fluent_ready_i1_t5@1))) (let ((.def_57 (not .def_56))) (let ((.def_58 (=> .def_57 .def_55))) (let ((.def_59 (and act_make_treatment@1 true .def_54 .def_12 .def_21))) (let ((.def_60 (= fluent_ready_i0_t5@0 fluent_ready_i0_t5@1))) (let ((.def_61 (not .def_60))) (let ((.def_62 (=> .def_61 .def_59))) (let ((.def_63 (and act_make_treatment@1 true .def_54 .def_11 .def_22))) (let ((.def_64 (= fluent_ready_i1_t4@0 fluent_ready_i1_t4@1))) (let ((.def_65 (not .def_64))) (let ((.def_66 (=> .def_65 .def_63))) (let ((.def_67 (and act_make_treatment@1 true .def_54 .def_12 .def_22))) (let ((.def_68 (= fluent_ready_i0_t4@0 fluent_ready_i0_t4@1))) (let ((.def_69 (not .def_68))) (let ((.def_70 (=> .def_69 .def_67))) (let ((.def_71 (and act_make_treatment@1 true .def_54 .def_11 .def_23))) (let ((.def_72 (= fluent_ready_i1_t3@0 fluent_ready_i1_t3@1))) (let ((.def_73 (not .def_72))) (let ((.def_74 (=> .def_73 .def_71))) (let ((.def_75 (and act_make_treatment@1 true .def_54 .def_12 .def_23))) (let ((.def_76 (= fluent_ready_i0_t3@0 fluent_ready_i0_t3@1))) (let ((.def_77 (not .def_76))) (let ((.def_78 (=> .def_77 .def_75))) (let ((.def_79 (and act_make_treatment@1 true .def_54 .def_11 .def_24))) (let ((.def_80 (= fluent_ready_i1_t2@0 fluent_ready_i1_t2@1))) (let ((.def_81 (not .def_80))) (let ((.def_82 (=> .def_81 .def_79))) (let ((.def_83 (and act_make_treatment@1 true .def_54 .def_12 .def_24))) (let ((.def_84 (= fluent_ready_i0_t2@0 fluent_ready_i0_t2@1))) (let ((.def_85 (not .def_84))) (let ((.def_86 (=> .def_85 .def_83))) (let ((.def_87 (and act_make_treatment@1 true .def_54 .def_11 .def_25))) (let ((.def_88 (= fluent_ready_i1_t1@0 fluent_ready_i1_t1@1))) (let ((.def_89 (not .def_88))) (let ((.def_90 (=> .def_89 .def_87))) (let ((.def_91 (and act_make_treatment@1 true .def_54 .def_12 .def_25))) (let ((.def_92 (= fluent_ready_i0_t1@0 fluent_ready_i0_t1@1))) (let ((.def_93 (not .def_92))) (let ((.def_94 (=> .def_93 .def_91))) (let ((.def_95 (and act_make_treatment@1 true .def_54 .def_11 .def_26))) (let ((.def_96 (= fluent_ready_i1_t0@0 fluent_ready_i1_t0@1))) (let ((.def_97 (not .def_96))) (let ((.def_98 (=> .def_97 .def_95))) (let ((.def_99 (and act_make_treatment@1 true .def_54 .def_12 .def_26))) (let ((.def_100 (= fluent_ready_i0_t0@0 fluent_ready_i0_t0@1))) (let ((.def_101 (not .def_100))) (let ((.def_102 (=> .def_101 .def_99))) (let ((.def_103 (and act_make_treatment@1 true .def_11 .def_14))) (let ((.def_104 (= fluent_started_i1_t5@0 fluent_started_i1_t5@1))) (let ((.def_105 (not .def_104))) (let ((.def_106 (=> .def_105 .def_103))) (let ((.def_107 (and act_make_treatment@1 true .def_12 .def_14))) (let ((.def_108 (= fluent_started_i0_t5@0 fluent_started_i0_t5@1))) (let ((.def_109 (not .def_108))) (let ((.def_110 (=> .def_109 .def_107))) (let ((.def_111 (and act_make_treatment@1 true .def_11 .def_15))) (let ((.def_112 (= fluent_started_i1_t4@0 fluent_started_i1_t4@1))) (let ((.def_113 (not .def_112))) (let ((.def_114 (=> .def_113 .def_111))) (let ((.def_115 (and act_make_treatment@1 true .def_12 .def_15))) (let ((.def_116 (= fluent_started_i0_t4@0 fluent_started_i0_t4@1))) (let ((.def_117 (not .def_116))) (let ((.def_118 (=> .def_117 .def_115))) (let ((.def_119 (and act_make_treatment@1 true .def_11 .def_16))) (let ((.def_120 (= fluent_started_i1_t3@0 fluent_started_i1_t3@1))) (let ((.def_121 (not .def_120))) (let ((.def_122 (=> .def_121 .def_119))) (let ((.def_123 (and act_make_treatment@1 true .def_12 .def_16))) (let ((.def_124 (= fluent_started_i0_t3@0 fluent_started_i0_t3@1))) (let ((.def_125 (not .def_124))) (let ((.def_126 (=> .def_125 .def_123))) (let ((.def_127 (and act_make_treatment@1 true .def_11 .def_17))) (let ((.def_128 (= fluent_started_i1_t2@0 fluent_started_i1_t2@1))) (let ((.def_129 (not .def_128))) (let ((.def_130 (=> .def_129 .def_127))) (let ((.def_131 (and act_make_treatment@1 true .def_12 .def_17))) (let ((.def_132 (= fluent_started_i0_t2@0 fluent_started_i0_t2@1))) (let ((.def_133 (not .def_132))) (let ((.def_134 (=> .def_133 .def_131))) (let ((.def_135 (and act_make_treatment@1 true .def_11 .def_18))) (let ((.def_136 (= fluent_started_i1_t1@0 fluent_started_i1_t1@1))) (let ((.def_137 (not .def_136))) (let ((.def_138 (=> .def_137 .def_135))) (let ((.def_139 (and act_make_treatment@1 true .def_12 .def_18))) (let ((.def_140 (= fluent_started_i0_t1@0 fluent_started_i0_t1@1))) (let ((.def_141 (not .def_140))) (let ((.def_142 (=> .def_141 .def_139))) (let ((.def_143 (and act_make_treatment@1 true .def_11 .def_19))) (let ((.def_144 (= fluent_started_i1_t0@0 fluent_started_i1_t0@1))) (let ((.def_145 (not .def_144))) (let ((.def_146 (=> .def_145 .def_143))) (let ((.def_147 (and act_make_treatment@1 true .def_12 .def_19))) (let ((.def_148 (= fluent_started_i0_t0@0 fluent_started_i0_t0@1))) (let ((.def_149 (not .def_148))) (let ((.def_150 (=> .def_149 .def_147))) (let ((.def_151 (+ t@1 4.0))) (let ((.def_152 (= t@1 .def_151))) (let ((.def_153 (and act_make_treatment@1 true .def_152 .def_11 .def_14))) (let ((.def_154 (= fluent_treated_i1_t5@0 fluent_treated_i1_t5@1))) (let ((.def_155 (not .def_154))) (let ((.def_156 (=> .def_155 .def_153))) (let ((.def_157 (and act_make_treatment@1 true .def_152 .def_12 .def_14))) (let ((.def_158 (= fluent_treated_i0_t5@0 fluent_treated_i0_t5@1))) (let ((.def_159 (not .def_158))) (let ((.def_160 (=> .def_159 .def_157))) (let ((.def_161 (and act_make_treatment@1 true .def_152 .def_11 .def_15))) (let ((.def_162 (= fluent_treated_i1_t4@0 fluent_treated_i1_t4@1))) (let ((.def_163 (not .def_162))) (let ((.def_164 (=> .def_163 .def_161))) (let ((.def_165 (and act_make_treatment@1 true .def_152 .def_12 .def_15))) (let ((.def_166 (= fluent_treated_i0_t4@0 fluent_treated_i0_t4@1))) (let ((.def_167 (not .def_166))) (let ((.def_168 (=> .def_167 .def_165))) (let ((.def_169 (and act_make_treatment@1 true .def_152 .def_11 .def_16))) (let ((.def_170 (= fluent_treated_i1_t3@0 fluent_treated_i1_t3@1))) (let ((.def_171 (not .def_170))) (let ((.def_172 (=> .def_171 .def_169))) (let ((.def_173 (and act_make_treatment@1 true .def_152 .def_12 .def_16))) (let ((.def_174 (= fluent_treated_i0_t3@0 fluent_treated_i0_t3@1))) (let ((.def_175 (not .def_174))) (let ((.def_176 (=> .def_175 .def_173))) (let ((.def_177 (and act_make_treatment@1 true .def_152 .def_11 .def_17))) (let ((.def_178 (= fluent_treated_i1_t2@0 fluent_treated_i1_t2@1))) (let ((.def_179 (not .def_178))) (let ((.def_180 (=> .def_179 .def_177))) (let ((.def_181 (and act_make_treatment@1 true .def_152 .def_12 .def_17))) (let ((.def_182 (= fluent_treated_i0_t2@0 fluent_treated_i0_t2@1))) (let ((.def_183 (not .def_182))) (let ((.def_184 (=> .def_183 .def_181))) (let ((.def_185 (and act_make_treatment@1 true .def_152 .def_11 .def_18))) (let ((.def_186 (= fluent_treated_i1_t1@0 fluent_treated_i1_t1@1))) (let ((.def_187 (not .def_186))) (let ((.def_188 (=> .def_187 .def_185))) (let ((.def_189 (and act_make_treatment@1 true .def_152 .def_12 .def_18))) (let ((.def_190 (= fluent_treated_i0_t1@0 fluent_treated_i0_t1@1))) (let ((.def_191 (not .def_190))) (let ((.def_192 (=> .def_191 .def_189))) (let ((.def_193 (and act_make_treatment@1 true .def_152 .def_11 .def_19))) (let ((.def_194 (= fluent_treated_i1_t0@0 fluent_treated_i1_t0@1))) (let ((.def_195 (not .def_194))) (let ((.def_196 (=> .def_195 .def_193))) (let ((.def_197 (and act_make_treatment@1 true .def_152 .def_12 .def_19))) (let ((.def_198 (= fluent_treated_i0_t0@0 fluent_treated_i0_t0@1))) (let ((.def_199 (not .def_198))) (let ((.def_200 (=> .def_199 .def_197))) (let ((.def_201 (and act_make_treatment@1 true .def_152))) (let ((.def_202 (and act_make_treatment@1 true))) (let ((.def_203 (and .def_202 .def_201))) (let ((.def_204 (not .def_203))) (let ((.def_205 (or .def_202 .def_201))) (let ((.def_206 (= fluent_busy_@0 fluent_busy_@1))) (let ((.def_207 (not .def_206))) (let ((.def_208 (=> .def_207 .def_205))) (let ((.def_209 (and .def_208 .def_204 .def_200 .def_196 .def_192 .def_188 .def_184 .def_180 .def_176 .def_172 .def_168 .def_164 .def_160 .def_156 .def_150 .def_146 .def_142 .def_138 .def_134 .def_130 .def_126 .def_122 .def_118 .def_114 .def_110 .def_106 .def_102 .def_98 .def_94 .def_90 .def_86 .def_82 .def_78 .def_74 .def_70 .def_66 .def_62 .def_58 .def_52 .def_48 .def_44 .def_40 .def_36 .def_32))) (let ((.def_210 (<= 0.0 t@1))) (let ((.def_211 (and .def_11 .def_26))) (let ((.def_212 (ite .def_211 fluent_ready_i1_t0@1 fluent_ready_i0_t0@1))) (let ((.def_213 (and .def_12 .def_25))) (let ((.def_214 (ite .def_213 fluent_ready_i0_t1@1 .def_212))) (let ((.def_215 (and .def_11 .def_25))) (let ((.def_216 (ite .def_215 fluent_ready_i1_t1@1 .def_214))) (let ((.def_217 (and .def_12 .def_24))) (let ((.def_218 (ite .def_217 fluent_ready_i0_t2@1 .def_216))) (let ((.def_219 (and .def_11 .def_24))) (let ((.def_220 (ite .def_219 fluent_ready_i1_t2@1 .def_218))) (let ((.def_221 (and .def_12 .def_23))) (let ((.def_222 (ite .def_221 fluent_ready_i0_t3@1 .def_220))) (let ((.def_223 (and .def_11 .def_23))) (let ((.def_224 (ite .def_223 fluent_ready_i1_t3@1 .def_222))) (let ((.def_225 (and .def_12 .def_22))) (let ((.def_226 (ite .def_225 fluent_ready_i0_t4@1 .def_224))) (let ((.def_227 (and .def_11 .def_22))) (let ((.def_228 (ite .def_227 fluent_ready_i1_t4@1 .def_226))) (let ((.def_229 (and .def_12 .def_21))) (let ((.def_230 (ite .def_229 fluent_ready_i0_t5@1 .def_228))) (let ((.def_231 (and .def_11 .def_21))) (let ((.def_232 (ite .def_231 fluent_ready_i1_t5@1 .def_230))) (let ((.def_233 (= .def_232 true))) (let ((.def_234 (=> true .def_233))) (let ((.def_235 (and .def_54 .def_234))) (let ((.def_236 (= fluent_busy_@1 false))) (let ((.def_237 (=> true .def_236))) (let ((.def_238 (and .def_11 .def_19))) (let ((.def_239 (ite .def_238 fluent_treated_i1_t0@1 fluent_treated_i0_t0@1))) (let ((.def_240 (and .def_12 .def_18))) (let ((.def_241 (ite .def_240 fluent_treated_i0_t1@1 .def_239))) (let ((.def_242 (and .def_11 .def_18))) (let ((.def_243 (ite .def_242 fluent_treated_i1_t1@1 .def_241))) (let ((.def_244 (and .def_12 .def_17))) (let ((.def_245 (ite .def_244 fluent_treated_i0_t2@1 .def_243))) (let ((.def_246 (and .def_11 .def_17))) (let ((.def_247 (ite .def_246 fluent_treated_i1_t2@1 .def_245))) (let ((.def_248 (and .def_12 .def_16))) (let ((.def_249 (ite .def_248 fluent_treated_i0_t3@1 .def_247))) (let ((.def_250 (and .def_11 .def_16))) (let ((.def_251 (ite .def_250 fluent_treated_i1_t3@1 .def_249))) (let ((.def_252 (and .def_12 .def_15))) (let ((.def_253 (ite .def_252 fluent_treated_i0_t4@1 .def_251))) (let ((.def_254 (and .def_11 .def_15))) (let ((.def_255 (ite .def_254 fluent_treated_i1_t4@1 .def_253))) (let ((.def_256 (and .def_12 .def_14))) (let ((.def_257 (ite .def_256 fluent_treated_i0_t5@1 .def_255))) (let ((.def_258 (and .def_11 .def_14))) (let ((.def_259 (ite .def_258 fluent_treated_i1_t5@1 .def_257))) (let ((.def_260 (= .def_259 true))) (let ((.def_261 (=> true .def_260))) (let ((.def_262 (and .def_152 .def_261 .def_237))) (let ((.def_263 (ite .def_238 fluent_started_i1_t0@1 fluent_started_i0_t0@1))) (let ((.def_264 (ite .def_240 fluent_started_i0_t1@1 .def_263))) (let ((.def_265 (ite .def_242 fluent_started_i1_t1@1 .def_264))) (let ((.def_266 (ite .def_244 fluent_started_i0_t2@1 .def_265))) (let ((.def_267 (ite .def_246 fluent_started_i1_t2@1 .def_266))) (let ((.def_268 (ite .def_248 fluent_started_i0_t3@1 .def_267))) (let ((.def_269 (ite .def_250 fluent_started_i1_t3@1 .def_268))) (let ((.def_270 (ite .def_252 fluent_started_i0_t4@1 .def_269))) (let ((.def_271 (ite .def_254 fluent_started_i1_t4@1 .def_270))) (let ((.def_272 (ite .def_256 fluent_started_i0_t5@1 .def_271))) (let ((.def_273 (ite .def_258 fluent_started_i1_t5@1 .def_272))) (let ((.def_274 (= .def_273 true))) (let ((.def_275 (=> true .def_274))) (let ((.def_276 (= fluent_busy_@1 true))) (let ((.def_277 (=> true .def_276))) (let ((.def_278 (ite .def_18 fluent_counter_t1@0 fluent_counter_t0@0))) (let ((.def_279 (ite .def_17 fluent_counter_t2@0 .def_278))) (let ((.def_280 (ite .def_16 fluent_counter_t3@0 .def_279))) (let ((.def_281 (ite .def_15 fluent_counter_t4@0 .def_280))) (let ((.def_282 (ite .def_14 fluent_counter_t5@0 .def_281))) (let ((.def_283 (+ .def_282 1.0))) (let ((.def_284 (ite .def_18 fluent_counter_t1@1 fluent_counter_t0@1))) (let ((.def_285 (ite .def_17 fluent_counter_t2@1 .def_284))) (let ((.def_286 (ite .def_16 fluent_counter_t3@1 .def_285))) (let ((.def_287 (ite .def_15 fluent_counter_t4@1 .def_286))) (let ((.def_288 (ite .def_14 fluent_counter_t5@1 .def_287))) (let ((.def_289 (= .def_288 .def_283))) (let ((.def_290 (=> true .def_289))) (let ((.def_291 (= t@1 t@1))) (let ((.def_292 (and .def_291 .def_290 .def_277 .def_275))) (let ((.def_293 (ite .def_211 fluent_started_i1_t0@0 fluent_started_i0_t0@0))) (let ((.def_294 (ite .def_213 fluent_started_i0_t1@0 .def_293))) (let ((.def_295 (ite .def_215 fluent_started_i1_t1@0 .def_294))) (let ((.def_296 (ite .def_217 fluent_started_i0_t2@0 .def_295))) (let ((.def_297 (ite .def_219 fluent_started_i1_t2@0 .def_296))) (let ((.def_298 (ite .def_221 fluent_started_i0_t3@0 .def_297))) (let ((.def_299 (ite .def_223 fluent_started_i1_t3@0 .def_298))) (let ((.def_300 (ite .def_225 fluent_started_i0_t4@0 .def_299))) (let ((.def_301 (ite .def_227 fluent_started_i1_t4@0 .def_300))) (let ((.def_302 (ite .def_229 fluent_started_i0_t5@0 .def_301))) (let ((.def_303 (ite .def_231 fluent_started_i1_t5@0 .def_302))) (let ((.def_304 (+ t@1 dur_make_treatment@1))) (let ((.def_305 (<= .def_304 t@1))) (let ((.def_306 (< (- 1.0) .def_304))) (let ((.def_307 (and .def_306 .def_305))) (let ((.def_308 (=> .def_307 .def_303))) (let ((.def_309 (ite .def_238 fluent_ready_i1_t0@0 fluent_ready_i0_t0@0))) (let ((.def_310 (ite .def_240 fluent_ready_i0_t1@0 .def_309))) (let ((.def_311 (ite .def_242 fluent_ready_i1_t1@0 .def_310))) (let ((.def_312 (ite .def_244 fluent_ready_i0_t2@0 .def_311))) (let ((.def_313 (ite .def_246 fluent_ready_i1_t2@0 .def_312))) (let ((.def_314 (ite .def_248 fluent_ready_i0_t3@0 .def_313))) (let ((.def_315 (ite .def_250 fluent_ready_i1_t3@0 .def_314))) (let ((.def_316 (ite .def_252 fluent_ready_i0_t4@0 .def_315))) (let ((.def_317 (ite .def_254 fluent_ready_i1_t4@0 .def_316))) (let ((.def_318 (ite .def_256 fluent_ready_i0_t5@0 .def_317))) (let ((.def_319 (ite .def_258 fluent_ready_i1_t5@0 .def_318))) (let ((.def_320 (ite .def_238 fluent_started_i1_t0@0 fluent_started_i0_t0@0))) (let ((.def_321 (ite .def_240 fluent_started_i0_t1@0 .def_320))) (let ((.def_322 (ite .def_242 fluent_started_i1_t1@0 .def_321))) (let ((.def_323 (ite .def_244 fluent_started_i0_t2@0 .def_322))) (let ((.def_324 (ite .def_246 fluent_started_i1_t2@0 .def_323))) (let ((.def_325 (ite .def_248 fluent_started_i0_t3@0 .def_324))) (let ((.def_326 (ite .def_250 fluent_started_i1_t3@0 .def_325))) (let ((.def_327 (ite .def_252 fluent_started_i0_t4@0 .def_326))) (let ((.def_328 (ite .def_254 fluent_started_i1_t4@0 .def_327))) (let ((.def_329 (ite .def_256 fluent_started_i0_t5@0 .def_328))) (let ((.def_330 (ite .def_258 fluent_started_i1_t5@0 .def_329))) (let ((.def_331 (not .def_330))) (let ((.def_332 (ite .def_238 fluent_treated_i1_t0@0 fluent_treated_i0_t0@0))) (let ((.def_333 (ite .def_240 fluent_treated_i0_t1@0 .def_332))) (let ((.def_334 (ite .def_242 fluent_treated_i1_t1@0 .def_333))) (let ((.def_335 (ite .def_244 fluent_treated_i0_t2@0 .def_334))) (let ((.def_336 (ite .def_246 fluent_treated_i1_t2@0 .def_335))) (let ((.def_337 (ite .def_248 fluent_treated_i0_t3@0 .def_336))) (let ((.def_338 (ite .def_250 fluent_treated_i1_t3@0 .def_337))) (let ((.def_339 (ite .def_252 fluent_treated_i0_t4@0 .def_338))) (let ((.def_340 (ite .def_254 fluent_treated_i1_t4@0 .def_339))) (let ((.def_341 (ite .def_256 fluent_treated_i0_t5@0 .def_340))) (let ((.def_342 (ite .def_258 fluent_treated_i1_t5@0 .def_341))) (let ((.def_343 (not .def_342))) (let ((.def_344 (not fluent_busy_@0))) (let ((.def_345 (and .def_18 .def_26))) (let ((.def_346 (ite .def_345 false false))) (let ((.def_347 (and .def_17 .def_26))) (let ((.def_348 (ite .def_347 false .def_346))) (let ((.def_349 (and .def_16 .def_26))) (let ((.def_350 (ite .def_349 false .def_348))) (let ((.def_351 (and .def_15 .def_26))) (let ((.def_352 (ite .def_351 false .def_350))) (let ((.def_353 (and .def_14 .def_26))) (let ((.def_354 (ite .def_353 false .def_352))) (let ((.def_355 (and .def_19 .def_25))) (let ((.def_356 (ite .def_355 true .def_354))) (let ((.def_357 (and .def_18 .def_25))) (let ((.def_358 (ite .def_357 false .def_356))) (let ((.def_359 (and .def_17 .def_25))) (let ((.def_360 (ite .def_359 false .def_358))) (let ((.def_361 (and .def_16 .def_25))) (let ((.def_362 (ite .def_361 false .def_360))) (let ((.def_363 (and .def_15 .def_25))) (let ((.def_364 (ite .def_363 false .def_362))) (let ((.def_365 (and .def_14 .def_25))) (let ((.def_366 (ite .def_365 false .def_364))) (let ((.def_367 (and .def_19 .def_24))) (let ((.def_368 (ite .def_367 false .def_366))) (let ((.def_369 (and .def_18 .def_24))) (let ((.def_370 (ite .def_369 true .def_368))) (let ((.def_371 (and .def_17 .def_24))) (let ((.def_372 (ite .def_371 false .def_370))) (let ((.def_373 (and .def_16 .def_24))) (let ((.def_374 (ite .def_373 false .def_372))) (let ((.def_375 (and .def_15 .def_24))) (let ((.def_376 (ite .def_375 false .def_374))) (let ((.def_377 (and .def_14 .def_24))) (let ((.def_378 (ite .def_377 false .def_376))) (let ((.def_379 (and .def_19 .def_23))) (let ((.def_380 (ite .def_379 false .def_378))) (let ((.def_381 (and .def_18 .def_23))) (let ((.def_382 (ite .def_381 false .def_380))) (let ((.def_383 (and .def_17 .def_23))) (let ((.def_384 (ite .def_383 true .def_382))) (let ((.def_385 (and .def_16 .def_23))) (let ((.def_386 (ite .def_385 false .def_384))) (let ((.def_387 (and .def_15 .def_23))) (let ((.def_388 (ite .def_387 false .def_386))) (let ((.def_389 (and .def_14 .def_23))) (let ((.def_390 (ite .def_389 false .def_388))) (let ((.def_391 (and .def_19 .def_22))) (let ((.def_392 (ite .def_391 false .def_390))) (let ((.def_393 (and .def_18 .def_22))) (let ((.def_394 (ite .def_393 false .def_392))) (let ((.def_395 (and .def_17 .def_22))) (let ((.def_396 (ite .def_395 false .def_394))) (let ((.def_397 (and .def_16 .def_22))) (let ((.def_398 (ite .def_397 true .def_396))) (let ((.def_399 (and .def_15 .def_22))) (let ((.def_400 (ite .def_399 false .def_398))) (let ((.def_401 (and .def_14 .def_22))) (let ((.def_402 (ite .def_401 false .def_400))) (let ((.def_403 (and .def_19 .def_21))) (let ((.def_404 (ite .def_403 false .def_402))) (let ((.def_405 (and .def_18 .def_21))) (let ((.def_406 (ite .def_405 false .def_404))) (let ((.def_407 (and .def_17 .def_21))) (let ((.def_408 (ite .def_407 false .def_406))) (let ((.def_409 (and .def_16 .def_21))) (let ((.def_410 (ite .def_409 false .def_408))) (let ((.def_411 (and .def_15 .def_21))) (let ((.def_412 (ite .def_411 true .def_410))) (let ((.def_413 (and .def_14 .def_21))) (let ((.def_414 (ite .def_413 false .def_412))) (let ((.def_415 (ite .def_11 1.0 0.0))) (let ((.def_416 (= .def_415 .def_282))) (let ((.def_417 (and .def_416 .def_414 .def_344 .def_343 .def_331 .def_319))) (let ((.def_418 (<= t@1 t@1))) (let ((.def_419 (< (- 1.0) t@1))) (let ((.def_420 (and .def_419 .def_418))) (let ((.def_421 (=> .def_420 .def_417))) (let ((.def_422 (<= dur_make_treatment@1 15.0))) (let ((.def_423 (<= 15.0 dur_make_treatment@1))) (let ((.def_424 (and .def_423 .def_422))) (let ((.def_425 (and .def_424 .def_305 .def_421 .def_308 .def_292 .def_262 .def_235))) (let ((.def_426 (=> act_make_treatment@1 .def_425))) (let ((.def_427 (<= fluent_counter_t1@0 31.0))) (let ((.def_428 (<= 0.0 fluent_counter_t1@0))) (let ((.def_429 (<= fluent_counter_t0@0 31.0))) (let ((.def_430 (<= 0.0 fluent_counter_t0@0))) (let ((.def_431 (<= fluent_counter_t5@0 31.0))) (let ((.def_432 (<= 0.0 fluent_counter_t5@0))) (let ((.def_433 (<= fluent_counter_t4@0 31.0))) (let ((.def_434 (<= 0.0 fluent_counter_t4@0))) (let ((.def_435 (<= fluent_counter_t3@0 31.0))) (let ((.def_436 (<= 0.0 fluent_counter_t3@0))) (let ((.def_437 (<= fluent_counter_t2@0 31.0))) (let ((.def_438 (<= 0.0 fluent_counter_t2@0))) (let ((.def_439 (= fluent_counter_t5@0 0.0))) (let ((.def_440 (= fluent_counter_t4@0 0.0))) (let ((.def_441 (= fluent_counter_t3@0 0.0))) (let ((.def_442 (= fluent_counter_t2@0 0.0))) (let ((.def_443 (= fluent_counter_t1@0 0.0))) (let ((.def_444 (= fluent_counter_t0@0 0.0))) (let ((.def_445 (= false false))) (let ((.def_446 (= fluent_ready_i1_t5@0 false))) (let ((.def_447 (= fluent_ready_i0_t5@0 false))) (let ((.def_448 (= fluent_ready_i1_t4@0 false))) (let ((.def_449 (= fluent_ready_i0_t4@0 false))) (let ((.def_450 (= fluent_ready_i1_t3@0 false))) (let ((.def_451 (= fluent_ready_i0_t3@0 false))) (let ((.def_452 (= fluent_ready_i1_t2@0 false))) (let ((.def_453 (= fluent_ready_i0_t2@0 false))) (let ((.def_454 (= fluent_ready_i1_t1@0 false))) (let ((.def_455 (= fluent_ready_i0_t1@0 false))) (let ((.def_456 (= fluent_started_i1_t4@0 false))) (let ((.def_457 (= fluent_started_i0_t4@0 false))) (let ((.def_458 (= fluent_started_i1_t3@0 false))) (let ((.def_459 (= fluent_started_i0_t3@0 false))) (let ((.def_460 (= fluent_started_i1_t2@0 false))) (let ((.def_461 (= fluent_started_i0_t2@0 false))) (let ((.def_462 (= fluent_started_i1_t1@0 false))) (let ((.def_463 (= fluent_started_i0_t1@0 false))) (let ((.def_464 (= fluent_started_i1_t0@0 false))) (let ((.def_465 (= fluent_started_i0_t0@0 false))) (let ((.def_466 (= fluent_treated_i1_t5@0 false))) (let ((.def_467 (= fluent_treated_i0_t5@0 false))) (let ((.def_468 (= fluent_treated_i1_t4@0 false))) (let ((.def_469 (= fluent_treated_i0_t4@0 false))) (let ((.def_470 (= fluent_treated_i1_t3@0 false))) (let ((.def_471 (= fluent_treated_i0_t3@0 false))) (let ((.def_472 (= fluent_treated_i1_t2@0 false))) (let ((.def_473 (= fluent_treated_i0_t2@0 false))) (let ((.def_474 (= fluent_treated_i1_t1@0 false))) (let ((.def_475 (= fluent_treated_i0_t1@0 false))) (let ((.def_476 (= fluent_treated_i1_t0@0 false))) (let ((.def_477 (= fluent_treated_i0_t0@0 false))) (let ((.def_478 (= fluent_busy_@0 false))) (let ((.def_479 (= fluent_ready_i1_t0@0 true))) (let ((.def_480 (= fluent_started_i1_t5@0 true))) (let ((.def_481 (= fluent_ready_i0_t0@0 true))) (let ((.def_482 (= fluent_started_i0_t5@0 true))) (let ((.def_483 (= true true))) (let ((.def_484 (= 1.0 1.0))) (let ((.def_485 (= 0.0 0.0))) (let ((.def_486 (and .def_485 .def_484 .def_483 .def_483 .def_483 .def_483 .def_483 .def_482 .def_481 .def_480 .def_479 .def_478 .def_477 .def_476 .def_475 .def_474 .def_473 .def_472 .def_471 .def_470 .def_469 .def_468 .def_467 .def_466 .def_465 .def_464 .def_463 .def_462 .def_461 .def_460 .def_459 .def_458 .def_457 .def_456 .def_455 .def_454 .def_453 .def_452 .def_451 .def_450 .def_449 .def_448 .def_447 .def_446 .def_445 .def_445 .def_445 .def_445 .def_445 .def_445 .def_445 .def_445 .def_445 .def_445 .def_445 .def_445 .def_445 .def_445 .def_445 .def_445 .def_445 .def_445 .def_445 .def_445 .def_445 .def_445 .def_445 .def_445 .def_445 .def_445 .def_445 .def_445 .def_445 .def_445 .def_445 .def_444 .def_443 .def_442 .def_441 .def_440 .def_439 .def_438 .def_437 .def_436 .def_435 .def_434 .def_433 .def_432 .def_431 .def_430 .def_429 .def_428 .def_427))) (let ((.def_487 (and .def_486 .def_426 .def_210 true true .def_209 .def_28 .def_27 .def_20 .def_13 .def_10 .def_9 .def_8 .def_7 .def_6 .def_5 .def_4 .def_3 .def_2 .def_1 .def_0 true))) .def_487)))))))))))))))))))))))))))))))))))))))))))))))))))))))))))))))))))))))))))))))))))))))))))))))))))))))))))))))))))))))))))))))))))))))))))))))))))))))))))))))))))))))))))))))))))))))))))))))))))))))))))))))))))))))))))))))))))))))))))))))))))))))))))))))))))))))))))))))))))))))))))))))))))))))))))))))))))))))))))))))))))))))))))))))))))))))))))))))))))))))))))))))))))))))))))))))))))))))))))))))))))))))))))))))))))))))))))))))))))))))))))))))))))))))))))))))))))))))))))))))))))))))))
(check-sat)


